Version identifier: 22.1.1.0 | 2022-11-28 | 9160aff4d
CPXPARAM_ClockType                               1
CPXPARAM_Read_DataCheck                          1
CPXPARAM_Threads                                 1
CPXPARAM_TimeLimit                               7200
CPXPARAM_MIP_Tolerances_AbsMIPGap                0
CPXPARAM_MIP_Tolerances_MIPGap                   0
CPXPARAM_MIP_Tolerances_Integrality              0
Tried aggregator 2 times.
MIP Presolve eliminated 1809 rows and 60 columns.
MIP Presolve modified 914 coefficients.
Aggregator did 20 substitutions.
Reduced MIP has 280203 rows, 82090 columns, and 908463 nonzeros.
Reduced MIP has 82090 binaries, 0 generals, 0 SOSs, and 0 indicators.
Presolve time = 4.14 sec. (2187.30 ticks)
Probing time = 0.11 sec. (26.37 ticks)
Tried aggregator 1 time.
Detecting symmetries...
MIP Presolve eliminated 820 rows and 0 columns.
Reduced MIP has 279383 rows, 82090 columns, and 906003 nonzeros.
Reduced MIP has 82090 binaries, 0 generals, 0 SOSs, and 0 indicators.
Presolve time = 3.25 sec. (1669.55 ticks)
Probing time = 0.11 sec. (25.70 ticks)
Clique table members: 267291.
MIP emphasis: balance optimality and feasibility.
MIP search method: dynamic search.
Parallel mode: none, using 1 thread.
Root relaxation solution time = 1149.01 sec. (159263.19 ticks)

        Nodes                                         Cuts/
   Node  Left     Objective  IInf  Best Integer    Best Bound    ItCnt     Gap

      0     0    68425.0000 27342                  68425.0000    90558         

Clique cuts applied:  62
Zero-half cuts applied:  7639
Gomory fractional cuts applied:  7

Root node processing (before b&c):
  Real time             = 7200.44 sec. (2006487.16 ticks)
Sequential b&c:
  Real time             =    0.00 sec. (0.00 ticks)
                          ------------
Total (root+branch&cut) = 7200.44 sec. (2006487.16 ticks)
Solution is infeasible.

---------------------
@@@ MIP_time_limit_infeasible
Traceback (most recent call last):
  File "/scratch/scherif/DiverseSAT-journal_sup/DiverseSAT_Supplementary_Experiments/experiment-1/cplex/jobs/../solvers/CPLEX-DW-SE.py", line 104, in <module>
    print(f">>> Benchmark {os.path.basename(cnf_file)} k {k} OPT {int(prob.solution.get_objective_value())}"
  File "/users/scherif/.local/lib/python3.9/site-packages/cplex/_internal/_subinterfaces.py", line 7211, in get_objective_value
    return CPX_PROC.getobjval(self._env._e, self._cplex._lp)
  File "/users/scherif/.local/lib/python3.9/site-packages/cplex/_internal/_procedural.py", line 2055, in getobjval
    check_status(env, status)
  File "/users/scherif/.local/lib/python3.9/site-packages/cplex/_internal/_procedural.py", line 249, in __call__
    raise CplexSolverError(error_string, env, status)
cplex.exceptions.errors.CplexSolverError: CPLEX Error  1217: No solution exists.
